data/rand/rand_061.gr
p tdp 15 63
1 2
1 3
1 6
1 7
1 8
1 9
1 10
1 11
1 12
2 3
2 4
2 5
2 6
2 7
2 8
2 9
2 10
2 11
2 13
2 14
2 15
3 5
3 7
3 10
3 12
3 14
3 15
4 6
4 7
4 9
4 10
4 12
4 13
4 15
5 7
5 9
5 10
5 12
5 13
5 14
6 8
6 10
6 13
6 14
6 15
7 8
7 12
7 13
7 15
8 11
8 12
8 13
9 10
9 12
9 13
9 15
10 14
11 13
11 14
12 15
13 14
13 15
14 15
