solutions/best/rand/rand_061.sol
11
0
1
2
5
3
14
12
4
12
15
14
10
8
10
13
